Route #1: 40 49 15 10 34 63 5 14 56 20 37 36 7 75 60 51 42 62
Route #2: 12 19 65 43 69 11 17 29 67 61 26 54
Route #3: 16 77 74 30 32 9 23 58 48 72 71 66 31 50 13 55 21 4
Route #4: 73 59 22 53 2 25 68 70 52 35 47 33 6 38 8 46
Route #5: 27 24 45 78 41
Route #6: 44 57 39 3 76 64 28
Route #7: 1 18
Route #8: 
Route #9: 
Route #10: 
cost 1611.929197027171
